811, 0, 0, 32, 1
812, 0, 1, 41, 3
813, 0, 2, 52, 2
814, 0, 3, 80, 4
815, 0, 4, 63, 0
816, 1, 0, 75, 2
817, 1, 1, 38, 3
818, 1, 2, 89, 1
819, 1, 3, 58, 4
820, 1, 4, 91, 0
821, 2, 0, 34, 3
822, 2, 1, 39, 2
823, 2, 2, 36, 0
824, 2, 3, 79, 4
825, 2, 4, 47, 1
826, 3, 0, 70, 3
827, 3, 1, 82, 4
828, 3, 2, 36, 2
829, 3, 3, 66, 0
830, 3, 4, 37, 1
